Li Ta Cl                                
    1.000000000000000     
    12.1594917109792160    0.0000000000000000    0.0000000000000000
     0.0000000000000000   12.1594917109792160    0.0000000000000000
     0.0000000000000000    0.0000000000000000   12.1594917109792160
   Li   Ta   Cl
     8     8    48
Direct
 -0.2400702514084008  1.4177188922390422  0.0195275705602749
  0.8764379097902915  0.2538028515224537 -0.8402754244772020
  0.6187671007919096  1.3162529366767328 -0.7144892447436725
  0.0732978288933577  0.8438009924871503 -0.3068680633409375
 -0.0364950301450738  0.7296912086752865  0.9496764808967595
  1.4575375436721112  1.9439215464250836 -0.2991734687161852
  0.3274231540184952  0.5781516880231998  1.1839588644361101
  1.4197680126385226  2.0654578393124829  0.3880125503463360
 -0.1308661874134760  0.6723864468183599  0.4588660320500942
  0.6629754428733506  1.1776239773656632  0.6379407446216130
  1.4114391966872417  0.6211702594615135  0.4679343598949294
  0.0701427986246934  0.4625886813279457  1.0463236062853689
  0.5366495856404715  0.6344442440042355 -0.0370249615773383
  0.0435417475478239  1.0383333749713897  0.1044061910965806
  0.1829296792090398  1.1523043937916857  0.6021495816596738
  0.5494326822154969  0.0558665953120724  0.1068149344796130
  0.1833239768941347  0.1469709798765043  0.0621537361118372
  0.4996045319854696  0.7533373196877089 -0.1844548959197994
 -0.1028747878741532 -0.5091649446595014  0.4483550948045967
  0.4050003100424200  0.9792802947020942  1.2320132064498903
  0.9156882452600529  1.0640465281272857 -0.0198311705937195
  0.4503694069926495  0.7136223896057106  0.1192703125555230
  0.1272216354047164  1.0992535054909243  0.7792644000618129
  0.1356903437049290 -0.5123415843830488  0.8703170535110694
  1.5572592775779621  0.5715129644363989  0.3667861901663972
  0.4336868594700396  0.2269363000524549  0.1789761783620427
  0.5317481001042540  0.0671568904942124  0.5476053218238911
  0.6134082374348963  0.0766728617727176  0.2854028888830628
  1.2514440474160702  0.9408441815661415  0.5705263589843782
  0.4489254723654580  0.4812030450233974  0.5892694921592357
  0.8007679485934761  0.1730180753762177  0.7771538394354626
  0.6386181774744041  1.3420001496544085  0.5428573364978996
 -0.2032430063857300  0.6668616106567870  0.2870776767052361
  0.1680155776888736  0.9206332367335425  0.0084352765772160
  0.6336549572783180  0.9996830150356635  0.7399630241276053
  1.3493867753292788  0.7693720088584096  0.3376317537587066
  0.0387569723664846  0.4218189704308460  1.2237994045881362
  0.2698058201614653  0.6819517250354871  0.6013171713290171
 -0.0175074249970809  0.8786955444497351  1.1890337819831454
  0.8884360545983098  0.5460274284122836  0.9979322317185225
  0.5011756162673292  0.4757604043284431  0.0716518229820269
  0.2808529733725794  1.2007342797314708  0.4205611277245984
 -0.3256347378688699  0.2012924686383520  0.0362658736599860
  0.4504694862811001  0.0143906085591329 -0.0498256517198222
  0.7652892875501628  0.3995894457260007  0.2253481232370237
  1.0504657468951604  1.0392798379755188  0.5005404756891861
  0.7953649186925323  1.1460840463044344 -0.5106016373124044
  0.7763634530697312  0.8448459065707999  0.4756601569546337
  0.0824075170417121  1.3048930089644042  0.5819063835401563
  0.2712232356481371  0.5255213225468481  0.3502908785611817
 -0.0434555144060214  0.3163272344462617  0.9867879677438084
  0.8768865649664911  0.6646814631965753  0.6562821485570607
  1.5372658387543754  0.7773050504574077  0.5422341644461907
  0.3324304035670236  1.2187551179189153  0.6891000161506327
  1.1003568775336405  0.6618305135841870  1.0508573687548557
  0.3682356596835525  0.5690801033822914 -0.1027661504647036
 -0.3232084193461935  0.5031260459716285 -0.1287385729797238
  0.5667534735859368  0.2766764124745297  0.7691074827291043
  0.7015577729982786 -0.0475649474472298  1.0722184769271192
  0.9241928012029532 -0.1232074689198860  0.8329354524134446
  0.7033820806973876  0.7148298437080092  0.0341331533317105
  1.0380000603544697  0.7125701415676159  0.4009503625030065
  1.2288636464231679  0.3608562620733205  1.0861944321554049
 -0.0107631885719731  1.1302150623353129  0.2619335382016972
 
 -0.87398157E-02 -0.15447167E-01  0.20302548E-01
  0.41632114E-02 -0.18039570E-01 -0.83843062E-02
 -0.57683479E-02  0.22586115E-01 -0.25712518E-01
  0.24245795E-02 -0.90330670E-02  0.12248932E-01
 -0.27322031E-02  0.22777897E-01 -0.28099027E-01
  0.11274330E-01 -0.48591924E-02  0.18116101E-01
  0.24925002E-02 -0.12278307E-01 -0.12766861E-01
  0.57687769E-02  0.20746999E-01  0.31012984E-02
 -0.53018668E-02 -0.42514645E-02 -0.23021739E-02
 -0.36550207E-02  0.39607489E-02 -0.88625648E-03
 -0.36869741E-02 -0.10642950E-02  0.96782222E-03
  0.24670385E-02 -0.17226713E-02 -0.37008531E-02
 -0.62509594E-02 -0.26332318E-02 -0.16133606E-02
  0.42490925E-02 -0.14601890E-02  0.27329581E-03
  0.35048518E-02  0.21295561E-02 -0.14085132E-02
  0.84225939E-03  0.99879039E-03 -0.10431622E-02
  0.53985311E-02 -0.46089313E-02  0.94827880E-02
  0.79226419E-03 -0.66515056E-02  0.54723626E-02
  0.29015665E-02 -0.44621668E-02 -0.94818323E-02
 -0.47724988E-02  0.98582815E-02 -0.13593486E-02
  0.60953619E-02  0.41471713E-02 -0.31012136E-02
  0.33344790E-02  0.46341574E-02  0.58195752E-02
 -0.31041520E-02  0.60847692E-02 -0.40882364E-02
 -0.21241593E-02  0.17601226E-03 -0.79484587E-02
 -0.14209496E-02 -0.54782434E-02  0.53166319E-02
  0.59168038E-02  0.11078531E-01  0.51100849E-02
  0.91717660E-02 -0.26789099E-02  0.51840787E-02
 -0.67300742E-02 -0.20319524E-02 -0.38366940E-02
 -0.73872873E-02 -0.48741638E-02  0.17747268E-02
  0.76046668E-02 -0.99118729E-02 -0.31821339E-02
 -0.10029069E-01  0.12651306E-02 -0.10681132E-02
 -0.45549738E-02  0.75210672E-02 -0.23760125E-02
  0.62000338E-02  0.90496625E-03  0.28879382E-02
  0.75362162E-02 -0.80720579E-02  0.60702329E-04
 -0.28640363E-02  0.26726985E-02 -0.26604670E-02
  0.74002700E-02 -0.44236331E-02  0.93630269E-03
  0.11566119E-03 -0.36023787E-02  0.30263191E-02
  0.74784488E-02 -0.33174423E-02  0.59618328E-02
  0.49935663E-02  0.19340132E-02 -0.62077760E-02
  0.34765440E-03  0.84076779E-02 -0.12306596E-02
 -0.42949756E-02  0.72929269E-02  0.99200706E-03
  0.30473350E-02  0.61870428E-02 -0.50568537E-02
  0.44655418E-02 -0.55011310E-02 -0.51637253E-02
 -0.11656772E-01 -0.47341368E-02  0.10741915E-01
  0.46411420E-02 -0.51874830E-02 -0.50735035E-02
  0.31462506E-02  0.72481738E-03  0.90609308E-02
  0.88157587E-03 -0.28050302E-02 -0.65708265E-03
  0.51227065E-03 -0.24541880E-02  0.24581217E-02
  0.11214072E-02  0.61470802E-02 -0.10200642E-02
  0.28772933E-02 -0.15133346E-02 -0.70359952E-02
  0.71206894E-02 -0.59222541E-02 -0.40759494E-02
 -0.84152147E-02 -0.12610966E-01  0.31196570E-02
  0.52136059E-02 -0.39274528E-02  0.32177210E-02
  0.87562405E-02  0.34514172E-02  0.19380999E-02
  0.77039889E-03 -0.50926551E-03 -0.16077414E-02
  0.28931254E-03  0.16070893E-02  0.51717502E-02
 -0.74745230E-02 -0.66535245E-02 -0.37172899E-02
  0.67132207E-02 -0.97212457E-02  0.38530187E-02
 -0.62467523E-02 -0.18856452E-02 -0.79614912E-02
 -0.51457300E-02  0.18473673E-02  0.50265135E-02
 -0.49918441E-02 -0.24172002E-02 -0.23020303E-02
  0.37949793E-02 -0.65642170E-02  0.57609373E-03
  0.59413778E-02 -0.70378659E-02 -0.20149760E-02
  0.15667750E-02 -0.61956978E-02  0.57330947E-02
 
            1
    1.000000000000000     
  0.10000000E+01  0.00000000E+00  0.00000000E+00  0.00000000E+00
  0.75921098E+00  0.41644851E+00  0.21197258E-01
  0.87678029E+00  0.25231927E+00  0.15903505E+00
  0.61829271E+00  0.31811043E+00  0.28339615E+00
  0.73497227E-01  0.84305811E+00  0.69413929E+00
  0.96328027E+00  0.73156447E+00  0.94736561E+00
  0.45846475E+00  0.94352193E+00  0.70231640E+00
  0.32762814E+00  0.57714192E+00  0.18290891E+00
  0.42024244E+00  0.67164078E-01  0.38826760E+00
  0.86869779E+00  0.67203681E+00  0.45867670E+00
  0.66267485E+00  0.17794971E+00  0.63786786E+00
  0.41113598E+00  0.62108273E+00  0.46801395E+00
  0.70345689E-01  0.46244701E+00  0.46019247E-01
  0.53613550E+00  0.63422769E+00  0.96284236E+00
  0.43891194E-01  0.38213289E-01  0.10442867E+00
  0.18321792E+00  0.15247953E+00  0.60203375E+00
  0.54950195E+00  0.55948736E-01  0.10672914E+00
  0.18376795E+00  0.14659194E+00  0.62933603E-01
  0.49966969E+00  0.75279030E+00  0.81599515E+00
  0.89736384E+00  0.49046809E+00  0.44757531E+00
  0.40460782E+00  0.98009104E+00  0.23190141E+00
  0.91618953E+00  0.64387593E-01  0.97991378E+00
  0.45064364E+00  0.71400350E+00  0.11974892E+00
  0.12696635E+00  0.99753919E-01  0.77892818E+00
  0.13551565E+00  0.48767289E+00  0.86966337E+00
  0.55714242E+00  0.57106243E+00  0.36722343E+00
  0.43417346E+00  0.22784740E+00  0.17939643E+00
  0.53250239E+00  0.66936576E-01  0.54803166E+00
  0.61285475E+00  0.76505753E-01  0.28508736E+00
  0.25083651E+00  0.94044333E+00  0.57067231E+00
  0.44955088E+00  0.48038789E+00  0.58900779E+00
  0.79994316E+00  0.17312212E+00  0.77706600E+00
  0.63824358E+00  0.34261868E+00  0.54266193E+00
  0.79726689E+00  0.66693604E+00  0.28731518E+00
  0.16863536E+00  0.91996939E+00  0.84402688E-02
  0.63341942E+00  0.99990282E+00  0.73974423E+00
  0.34999538E+00  0.76900821E+00  0.33770876E+00
  0.38766484E-01  0.42152271E+00  0.22404829E+00
  0.27042085E+00  0.68167890E+00  0.60180747E+00
  0.98290325E+00  0.87885460E+00  0.18852325E+00
  0.88846465E+00  0.54671888E+00  0.99783102E+00
  0.50082240E+00  0.47636018E+00  0.71733406E-01
  0.28110359E+00  0.20124310E+00  0.42014525E+00
  0.67473251E+00  0.20084005E+00  0.35841207E-01
  0.44951083E+00  0.14001272E-01  0.95105777E+00
  0.76567098E+00  0.39916283E+00  0.22493088E+00
  0.50724495E-01  0.39339447E-01  0.50128565E+00
  0.79543742E+00  0.14585336E+00  0.48934432E+00
  0.77640558E+00  0.84464407E+00  0.47586231E+00
  0.82499742E-01  0.30539855E+00  0.58182249E+00
  0.27145987E+00  0.52539687E+00  0.34971224E+00
  0.95713009E+00  0.31584019E+00  0.98645276E+00
  0.87619450E+00  0.66364433E+00  0.65653871E+00
  0.53769461E+00  0.77698206E+00  0.54249879E+00
  0.33315052E+00  0.21903896E+00  0.68925941E+00
  0.10042024E+00  0.66178863E+00  0.50725148E-01
  0.36825945E+00  0.56921227E+00  0.89765918E+00
  0.67617687E+00  0.50257886E+00  0.87095572E+00
  0.56730557E+00  0.27587693E+00  0.76942436E+00
  0.70104404E+00  0.95227998E+00  0.71563722E-01
  0.92376961E+00  0.87694446E+00  0.83334883E+00
  0.70297155E+00  0.71463105E+00  0.33943834E-01
  0.38312161E-01  0.71203030E+00  0.40099774E+00
  0.22935227E+00  0.36027747E+00  0.86028720E-01
  0.98936566E+00  0.12970553E+00  0.26240503E+00
  0.00000000E+00  0.00000000E+00  0.00000000E+00
  0.00000000E+00  0.00000000E+00  0.00000000E+00
  0.00000000E+00  0.00000000E+00  0.00000000E+00
  0.00000000E+00  0.00000000E+00  0.00000000E+00
  0.00000000E+00  0.00000000E+00  0.00000000E+00
  0.00000000E+00  0.00000000E+00  0.00000000E+00
  0.00000000E+00  0.00000000E+00  0.00000000E+00
  0.00000000E+00  0.00000000E+00  0.00000000E+00
  0.00000000E+00  0.00000000E+00  0.00000000E+00
  0.00000000E+00  0.00000000E+00  0.00000000E+00
  0.00000000E+00  0.00000000E+00  0.00000000E+00
  0.00000000E+00  0.00000000E+00  0.00000000E+00
  0.00000000E+00  0.00000000E+00  0.00000000E+00
  0.00000000E+00  0.00000000E+00  0.00000000E+00
  0.00000000E+00  0.00000000E+00  0.00000000E+00
  0.00000000E+00  0.00000000E+00  0.00000000E+00
  0.00000000E+00  0.00000000E+00  0.00000000E+00
  0.00000000E+00  0.00000000E+00  0.00000000E+00
  0.00000000E+00  0.00000000E+00  0.00000000E+00
  0.00000000E+00  0.00000000E+00  0.00000000E+00
  0.00000000E+00  0.00000000E+00  0.00000000E+00
  0.00000000E+00  0.00000000E+00  0.00000000E+00
  0.00000000E+00  0.00000000E+00  0.00000000E+00
  0.00000000E+00  0.00000000E+00  0.00000000E+00
  0.00000000E+00  0.00000000E+00  0.00000000E+00
  0.00000000E+00  0.00000000E+00  0.00000000E+00
  0.00000000E+00  0.00000000E+00  0.00000000E+00
  0.00000000E+00  0.00000000E+00  0.00000000E+00
  0.00000000E+00  0.00000000E+00  0.00000000E+00
  0.00000000E+00  0.00000000E+00  0.00000000E+00
  0.00000000E+00  0.00000000E+00  0.00000000E+00
  0.00000000E+00  0.00000000E+00  0.00000000E+00
  0.00000000E+00  0.00000000E+00  0.00000000E+00
  0.00000000E+00  0.00000000E+00  0.00000000E+00
  0.00000000E+00  0.00000000E+00  0.00000000E+00
  0.00000000E+00  0.00000000E+00  0.00000000E+00
  0.00000000E+00  0.00000000E+00  0.00000000E+00
  0.00000000E+00  0.00000000E+00  0.00000000E+00
  0.00000000E+00  0.00000000E+00  0.00000000E+00
  0.00000000E+00  0.00000000E+00  0.00000000E+00
  0.00000000E+00  0.00000000E+00  0.00000000E+00
  0.00000000E+00  0.00000000E+00  0.00000000E+00
  0.00000000E+00  0.00000000E+00  0.00000000E+00
  0.00000000E+00  0.00000000E+00  0.00000000E+00
  0.00000000E+00  0.00000000E+00  0.00000000E+00
  0.00000000E+00  0.00000000E+00  0.00000000E+00
  0.00000000E+00  0.00000000E+00  0.00000000E+00
  0.00000000E+00  0.00000000E+00  0.00000000E+00
  0.00000000E+00  0.00000000E+00  0.00000000E+00
  0.00000000E+00  0.00000000E+00  0.00000000E+00
  0.00000000E+00  0.00000000E+00  0.00000000E+00
  0.00000000E+00  0.00000000E+00  0.00000000E+00
  0.00000000E+00  0.00000000E+00  0.00000000E+00
  0.00000000E+00  0.00000000E+00  0.00000000E+00
  0.00000000E+00  0.00000000E+00  0.00000000E+00
  0.00000000E+00  0.00000000E+00  0.00000000E+00
  0.00000000E+00  0.00000000E+00  0.00000000E+00
  0.00000000E+00  0.00000000E+00  0.00000000E+00
  0.00000000E+00  0.00000000E+00  0.00000000E+00
  0.00000000E+00  0.00000000E+00  0.00000000E+00
  0.00000000E+00  0.00000000E+00  0.00000000E+00
  0.00000000E+00  0.00000000E+00  0.00000000E+00
  0.00000000E+00  0.00000000E+00  0.00000000E+00
  0.00000000E+00  0.00000000E+00  0.00000000E+00
  0.00000000E+00  0.00000000E+00  0.00000000E+00
  0.00000000E+00  0.00000000E+00  0.00000000E+00
  0.00000000E+00  0.00000000E+00  0.00000000E+00
  0.00000000E+00  0.00000000E+00  0.00000000E+00
  0.00000000E+00  0.00000000E+00  0.00000000E+00
  0.00000000E+00  0.00000000E+00  0.00000000E+00
  0.00000000E+00  0.00000000E+00  0.00000000E+00
  0.00000000E+00  0.00000000E+00  0.00000000E+00
  0.00000000E+00  0.00000000E+00  0.00000000E+00
  0.00000000E+00  0.00000000E+00  0.00000000E+00
  0.00000000E+00  0.00000000E+00  0.00000000E+00
  0.00000000E+00  0.00000000E+00  0.00000000E+00
  0.00000000E+00  0.00000000E+00  0.00000000E+00
  0.00000000E+00  0.00000000E+00  0.00000000E+00
  0.00000000E+00  0.00000000E+00  0.00000000E+00
  0.00000000E+00  0.00000000E+00  0.00000000E+00
  0.00000000E+00  0.00000000E+00  0.00000000E+00
  0.00000000E+00  0.00000000E+00  0.00000000E+00
  0.00000000E+00  0.00000000E+00  0.00000000E+00
  0.00000000E+00  0.00000000E+00  0.00000000E+00
  0.00000000E+00  0.00000000E+00  0.00000000E+00
  0.00000000E+00  0.00000000E+00  0.00000000E+00
  0.00000000E+00  0.00000000E+00  0.00000000E+00
  0.00000000E+00  0.00000000E+00  0.00000000E+00
  0.00000000E+00  0.00000000E+00  0.00000000E+00
  0.00000000E+00  0.00000000E+00  0.00000000E+00
  0.00000000E+00  0.00000000E+00  0.00000000E+00
  0.00000000E+00  0.00000000E+00  0.00000000E+00
  0.00000000E+00  0.00000000E+00  0.00000000E+00
  0.00000000E+00  0.00000000E+00  0.00000000E+00
  0.00000000E+00  0.00000000E+00  0.00000000E+00
  0.00000000E+00  0.00000000E+00  0.00000000E+00
  0.00000000E+00  0.00000000E+00  0.00000000E+00
  0.00000000E+00  0.00000000E+00  0.00000000E+00
  0.00000000E+00  0.00000000E+00  0.00000000E+00
  0.00000000E+00  0.00000000E+00  0.00000000E+00
  0.00000000E+00  0.00000000E+00  0.00000000E+00
  0.00000000E+00  0.00000000E+00  0.00000000E+00
  0.00000000E+00  0.00000000E+00  0.00000000E+00
  0.00000000E+00  0.00000000E+00  0.00000000E+00
  0.00000000E+00  0.00000000E+00  0.00000000E+00
  0.00000000E+00  0.00000000E+00  0.00000000E+00
  0.00000000E+00  0.00000000E+00  0.00000000E+00
  0.00000000E+00  0.00000000E+00  0.00000000E+00
  0.00000000E+00  0.00000000E+00  0.00000000E+00
  0.00000000E+00  0.00000000E+00  0.00000000E+00
  0.00000000E+00  0.00000000E+00  0.00000000E+00
  0.00000000E+00  0.00000000E+00  0.00000000E+00
  0.00000000E+00  0.00000000E+00  0.00000000E+00
  0.00000000E+00  0.00000000E+00  0.00000000E+00
  0.00000000E+00  0.00000000E+00  0.00000000E+00
  0.00000000E+00  0.00000000E+00  0.00000000E+00
  0.00000000E+00  0.00000000E+00  0.00000000E+00
  0.00000000E+00  0.00000000E+00  0.00000000E+00
  0.00000000E+00  0.00000000E+00  0.00000000E+00
  0.00000000E+00  0.00000000E+00  0.00000000E+00
  0.00000000E+00  0.00000000E+00  0.00000000E+00
  0.00000000E+00  0.00000000E+00  0.00000000E+00
  0.00000000E+00  0.00000000E+00  0.00000000E+00
  0.00000000E+00  0.00000000E+00  0.00000000E+00
  0.00000000E+00  0.00000000E+00  0.00000000E+00
  0.00000000E+00  0.00000000E+00  0.00000000E+00
  0.00000000E+00  0.00000000E+00  0.00000000E+00
  0.00000000E+00  0.00000000E+00  0.00000000E+00
